30 3
2 3 1 
14 18 3
3 7 1
10 14 1
15 19 1
11 16 1
20 22 3
2 5 1
22 2 1
21 0 2
10 13 2
14 15 2
10 13 3
1 2 1
5 9 2
7 12 1
8 12 3
4 7 1
9 11 1
7 9 3
9 12 3
18 23 1
13 16 3
12 16 3
7 10 1
19 21 1
21 1 1
15 18 3
7 11 1
10 14 2
6 8 3
